164	32	4	122	
10	10	10	10

0	0	0	0	0	0	3	1	2	3
1	1	1	0	1	10	3	6	5	4
2	1	0	1	5	3	3	6	5	4
3	0	6	3	4	6	1	4
4	6	0	5	4	4	1	7
5	5	4	5	0	9	1	7
6	4	2	4	0	2	1	7
7	4	6	0	2	10	2	10	8
8	4	7	0	4	5	1	9
9	5	3	0	3	3	2	12	11
10	4	6	9	0	1	1	11
11	2	0	4	3	1	2	14	13
12	3	3	0	3	6	2	14	13
13	0	1	4	4	2	5	20	18	17	16	15
14	6	0	3	4	6	5	19	18	17	16	15
15	7	7	0	3	1	2	22	21
16	6	6	1	0	5	2	22	21
17	1	2	0	7	8	2	22	21
18	6	6	2	0	10	2	22	21
19	0	3	4	4	3	2	22	21
20	1	2	0	5	9	2	22	21
21	0	3	7	8	7	2	24	23
22	5	7	4	0	9	2	24	23
23	2	0	3	3	10	2	28	25
24	0	2	1	6	6	2	28	27
25	3	2	0	3	2	1	26
26	4	6	5	0	9	1	27
27	6	4	2	0	7	1	29
28	4	0	8	4	1	1	29
29	3	3	0	5	7	1	30
30	7	0	5	3	2	1	31
31	0	0	0	0	0	0
